Route #1: 26 25 35 12 45 9 49 20 39 10 46 50 22 47 14 37 17 19 16 42 13 57 27 4 18 52 29 54
Route #2: 
Route #3: 40 23 21 48 3 51 15 44 8 31 43 53 38 33 30 36 41 55 5
Route #4: 1 56 28 2 6 34 32 7
Route #5: 24 11
Route #6: 
Route #7: 
cost 1628.8690298695046
